32      4       
10      10      10      10      
0       0       0       0       0       10      2       4       10      12      15      19      20      29      30      31      
4       1       1       1       0       3       3       18      27      
3       2       4       7       0       4       5       8       13      14      
9       0       6       4       1       4       6       26      27      28      
8       3       0       4       5       2       7       26      
7       2       0       4       5       1       7       
7       0       7       4       1       2       9       24      
3       5       3       5       0       5       16      22      23      24      26      
10      6       0       5       2       1       11      
3       0       3       2       2       5       17      22      23      24      25      
2       3       0       2       7       4       16      22      23      25      
2       5       3       4       0       3       13      22      27      
9       4       5       0       3       2       17      23      
2       0       2       5       1       1       16      
10      2       7       0       5       2       21      22      
8       3       0       1       5       1       17      
7       6       0       4       4       1       21      
10      0       4       7       4       1       24      
6       0       2       3       6       1       23      
5       3       0       4       4       1       22      
9       9       3       0       5       1       32      
10      0       5       6       5       1       32      
7       2       5       0       7       1       32      
2       9       0       3       2       1       32      
3       0       5       5       5       1       32      
4       3       0       4       5       1       32      
8       4       0       2       4       1       32      
6       0       4       5       4       1       32      
4       4       0       6       5       1       32      
8       4       0       3       4       1       32      
2       4       3       0       3       1       32      
0       0       0       0       0       0       
